certificates/rado_a15_c50_N51.cnf
c Rad2 upper bound instance: x1 + 15*x2 - x3 = 50, interval [1,51]
p cnf 51 340
1 4 11 0
-1 -4 -11 0
1 5 26 0
-1 -5 -26 0
1 6 41 0
-1 -6 -41 0
2 4 12 0
-2 -4 -12 0
2 5 27 0
-2 -5 -27 0
2 6 42 0
-2 -6 -42 0
3 4 13 0
-3 -4 -13 0
3 5 28 0
-3 -5 -28 0
3 6 43 0
-3 -6 -43 0
4 14 0
-4 -14 0
4 5 29 0
-4 -5 -29 0
4 6 44 0
-4 -6 -44 0
4 5 15 0
-4 -5 -15 0
5 30 0
-5 -30 0
5 6 45 0
-5 -6 -45 0
1 3 6 0
-1 -3 -6 0
4 6 16 0
-4 -6 -16 0
5 6 31 0
-5 -6 -31 0
6 46 0
-6 -46 0
2 3 7 0
-2 -3 -7 0
4 7 17 0
-4 -7 -17 0
5 7 32 0
-5 -7 -32 0
6 7 47 0
-6 -7 -47 0
3 8 0
-3 -8 0
4 8 18 0
-4 -8 -18 0
5 8 33 0
-5 -8 -33 0
6 8 48 0
-6 -8 -48 0
3 4 9 0
-3 -4 -9 0
4 9 19 0
-4 -9 -19 0
5 9 34 0
-5 -9 -34 0
6 9 49 0
-6 -9 -49 0
3 5 10 0
-3 -5 -10 0
4 10 20 0
-4 -10 -20 0
5 10 35 0
-5 -10 -35 0
6 10 50 0
-6 -10 -50 0
3 6 11 0
-3 -6 -11 0
4 11 21 0
-4 -11 -21 0
5 11 36 0
-5 -11 -36 0
6 11 51 0
-6 -11 -51 0
3 7 12 0
-3 -7 -12 0
4 12 22 0
-4 -12 -22 0
5 12 37 0
-5 -12 -37 0
3 8 13 0
-3 -8 -13 0
4 13 23 0
-4 -13 -23 0
5 13 38 0
-5 -13 -38 0
3 9 14 0
-3 -9 -14 0
4 14 24 0
-4 -14 -24 0
5 14 39 0
-5 -14 -39 0
3 10 15 0
-3 -10 -15 0
4 15 25 0
-4 -15 -25 0
5 15 40 0
-5 -15 -40 0
3 11 16 0
-3 -11 -16 0
4 16 26 0
-4 -16 -26 0
5 16 41 0
-5 -16 -41 0
3 12 17 0
-3 -12 -17 0
4 17 27 0
-4 -17 -27 0
5 17 42 0
-5 -17 -42 0
3 13 18 0
-3 -13 -18 0
4 18 28 0
-4 -18 -28 0
5 18 43 0
-5 -18 -43 0
3 14 19 0
-3 -14 -19 0
4 19 29 0
-4 -19 -29 0
5 19 44 0
-5 -19 -44 0
3 15 20 0
-3 -15 -20 0
4 20 30 0
-4 -20 -30 0
5 20 45 0
-5 -20 -45 0
1 2 21 0
-1 -2 -21 0
3 16 21 0
-3 -16 -21 0
4 21 31 0
-4 -21 -31 0
5 21 46 0
-5 -21 -46 0
2 22 0
-2 -22 0
3 17 22 0
-3 -17 -22 0
4 22 32 0
-4 -22 -32 0
5 22 47 0
-5 -22 -47 0
2 3 23 0
-2 -3 -23 0
3 18 23 0
-3 -18 -23 0
4 23 33 0
-4 -23 -33 0
5 23 48 0
-5 -23 -48 0
2 4 24 0
-2 -4 -24 0
3 19 24 0
-3 -19 -24 0
4 24 34 0
-4 -24 -34 0
5 24 49 0
-5 -24 -49 0
2 5 25 0
-2 -5 -25 0
3 20 25 0
-3 -20 -25 0
4 25 35 0
-4 -25 -35 0
5 25 50 0
-5 -25 -50 0
2 6 26 0
-2 -6 -26 0
3 21 26 0
-3 -21 -26 0
4 26 36 0
-4 -26 -36 0
5 26 51 0
-5 -26 -51 0
2 7 27 0
-2 -7 -27 0
3 22 27 0
-3 -22 -27 0
4 27 37 0
-4 -27 -37 0
2 8 28 0
-2 -8 -28 0
3 23 28 0
-3 -23 -28 0
4 28 38 0
-4 -28 -38 0
2 9 29 0
-2 -9 -29 0
3 24 29 0
-3 -24 -29 0
4 29 39 0
-4 -29 -39 0
2 10 30 0
-2 -10 -30 0
3 25 30 0
-3 -25 -30 0
4 30 40 0
-4 -30 -40 0
2 11 31 0
-2 -11 -31 0
3 26 31 0
-3 -26 -31 0
4 31 41 0
-4 -31 -41 0
2 12 32 0
-2 -12 -32 0
3 27 32 0
-3 -27 -32 0
4 32 42 0
-4 -32 -42 0
2 13 33 0
-2 -13 -33 0
3 28 33 0
-3 -28 -33 0
4 33 43 0
-4 -33 -43 0
2 14 34 0
-2 -14 -34 0
3 29 34 0
-3 -29 -34 0
4 34 44 0
-4 -34 -44 0
2 15 35 0
-2 -15 -35 0
3 30 35 0
-3 -30 -35 0
4 35 45 0
-4 -35 -45 0
1 36 0
-1 -36 0
2 16 36 0
-2 -16 -36 0
3 31 36 0
-3 -31 -36 0
4 36 46 0
-4 -36 -46 0
1 2 37 0
-1 -2 -37 0
2 17 37 0
-2 -17 -37 0
3 32 37 0
-3 -32 -37 0
4 37 47 0
-4 -37 -47 0
1 3 38 0
-1 -3 -38 0
2 18 38 0
-2 -18 -38 0
3 33 38 0
-3 -33 -38 0
4 38 48 0
-4 -38 -48 0
1 4 39 0
-1 -4 -39 0
2 19 39 0
-2 -19 -39 0
3 34 39 0
-3 -34 -39 0
4 39 49 0
-4 -39 -49 0
1 5 40 0
-1 -5 -40 0
2 20 40 0
-2 -20 -40 0
3 35 40 0
-3 -35 -40 0
4 40 50 0
-4 -40 -50 0
2 21 41 0
-2 -21 -41 0
3 36 41 0
-3 -36 -41 0
4 41 51 0
-4 -41 -51 0
1 7 42 0
-1 -7 -42 0
2 22 42 0
-2 -22 -42 0
3 37 42 0
-3 -37 -42 0
1 8 43 0
-1 -8 -43 0
2 23 43 0
-2 -23 -43 0
3 38 43 0
-3 -38 -43 0
1 9 44 0
-1 -9 -44 0
2 24 44 0
-2 -24 -44 0
3 39 44 0
-3 -39 -44 0
1 10 45 0
-1 -10 -45 0
2 25 45 0
-2 -25 -45 0
3 40 45 0
-3 -40 -45 0
1 11 46 0
-1 -11 -46 0
2 26 46 0
-2 -26 -46 0
3 41 46 0
-3 -41 -46 0
1 12 47 0
-1 -12 -47 0
2 27 47 0
-2 -27 -47 0
3 42 47 0
-3 -42 -47 0
1 13 48 0
-1 -13 -48 0
2 28 48 0
-2 -28 -48 0
3 43 48 0
-3 -43 -48 0
1 14 49 0
-1 -14 -49 0
2 29 49 0
-2 -29 -49 0
3 44 49 0
-3 -44 -49 0
1 15 50 0
-1 -15 -50 0
2 30 50 0
-2 -30 -50 0
3 45 50 0
-3 -45 -50 0
1 16 51 0
-1 -16 -51 0
2 31 51 0
-2 -31 -51 0
3 46 51 0
-3 -46 -51 0
