certificates/rado_a15_c50_N51.drat
6 3 0
d 6 43 3 0
-46 -51 0
-51 0
-6 0
3 0
46 0
11 0
-8 0
-41 0
-16 0
-1 0
48 0
43 0
4 0
0
